50
715
5
15
30
96
6
59
0 2
0 3
0 4
0 5
0 7
0 8
0 11
0 13
0 14
0 15
0 16
0 17
0 18
0 20
0 23
0 26
0 27
0 32
0 33
0 35
0 38
0 40
0 41
0 42
0 45
0 47
0 48
1 2
1 4
1 6
1 7
1 8
1 10
1 12
1 13
1 18
1 19
1 21
1 22
1 23
1 24
1 26
1 27
1 28
1 29
1 30
1 32
1 33
1 34
1 35
1 36
1 39
1 41
1 42
1 44
1 47
1 49
2 3
2 4
2 8
2 9
2 10
2 14
2 16
2 17
2 18
2 19
2 20
2 22
2 25
2 26
2 28
2 29
2 30
2 33
2 35
2 37
2 38
2 40
2 41
2 44
2 48
2 49
3 4
3 7
3 8
3 9
3 11
3 12
3 14
3 16
3 17
3 18
3 19
3 22
3 23
3 24
3 25
3 26
3 28
3 31
3 34
3 35
3 37
3 38
3 39
3 42
3 46
3 47
3 48
4 6
4 7
4 8
4 9
4 10
4 12
4 14
4 17
4 18
4 26
4 27
4 28
4 34
4 35
4 36
4 37
4 39
4 40
4 41
4 42
4 43
4 44
4 47
4 48
5 7
5 8
5 9
5 10
5 11
5 16
5 17
5 20
5 22
5 24
5 26
5 27
5 28
5 29
5 33
5 36
5 38
5 39
5 41
5 43
5 44
5 46
5 47
5 49
6 9
6 10
6 11
6 12
6 13
6 14
6 17
6 19
6 20
6 21
6 22
6 23
6 24
6 27
6 29
6 30
6 31
6 33
6 37
6 38
6 39
6 40
6 41
6 42
6 46
6 47
7 9
7 11
7 15
7 16
7 17
7 20
7 21
7 22
7 23
7 24
7 27
7 29
7 30
7 32
7 35
7 37
7 38
7 39
7 41
7 43
7 44
7 45
7 46
7 47
7 48
7 49
8 11
8 12
8 13
8 14
8 18
8 19
8 21
8 22
8 23
8 24
8 27
8 30
8 31
8 32
8 33
8 35
8 36
8 37
8 39
8 40
8 41
8 42
8 47
8 48
9 10
9 11
9 12
9 14
9 16
9 21
9 22
9 23
9 25
9 28
9 29
9 30
9 31
9 33
9 36
9 42
9 45
9 46
9 47
9 49
10 11
10 14
10 15
10 16
10 17
10 19
10 22
10 24
10 26
10 27
10 29
10 30
10 33
10 35
10 36
10 37
10 39
10 40
10 41
10 44
10 46
10 47
10 48
11 13
11 14
11 16
11 17
11 20
11 21
11 22
11 23
11 24
11 26
11 27
11 28
11 29
11 30
11 31
11 34
11 37
11 39
11 40
11 42
11 44
11 46
11 47
11 49
12 13
12 15
12 16
12 17
12 20
12 21
12 22
12 24
12 26
12 27
12 28
12 31
12 33
12 34
12 36
12 38
12 40
12 42
12 44
12 46
12 47
12 48
13 14
13 15
13 17
13 18
13 20
13 21
13 22
13 23
13 24
13 25
13 29
13 32
13 34
13 35
13 36
13 37
13 38
13 40
13 41
13 42
13 43
13 44
13 45
13 46
13 47
13 49
14 16
14 18
14 19
14 20
14 23
14 24
14 25
14 26
14 30
14 31
14 34
14 35
14 36
14 37
14 39
14 40
14 41
14 42
14 45
14 46
14 47
14 49
15 16
15 20
15 21
15 22
15 23
15 24
15 26
15 27
15 28
15 29
15 30
15 31
15 32
15 37
15 38
15 39
15 42
15 45
15 46
15 48
15 49
16 18
16 19
16 20
16 22
16 23
16 24
16 26
16 28
16 30
16 33
16 35
16 37
16 39
16 40
16 41
16 42
16 43
16 44
16 45
16 47
16 48
16 49
17 18
17 20
17 22
17 27
17 28
17 29
17 30
17 33
17 34
17 35
17 37
17 39
17 41
17 43
17 44
17 46
17 48
17 49
18 20
18 21
18 22
18 23
18 24
18 25
18 26
18 28
18 31
18 32
18 34
18 35
18 36
18 37
18 38
18 39
18 44
18 49
19 20
19 22
19 24
19 25
19 26
19 29
19 33
19 34
19 35
19 36
19 38
19 41
19 43
19 44
19 45
19 46
19 47
19 49
20 21
20 22
20 23
20 24
20 26
20 27
20 28
20 31
20 33
20 36
20 37
20 38
20 40
20 43
20 46
20 47
20 49
21 23
21 24
21 25
21 26
21 29
21 30
21 31
21 32
21 35
21 36
21 37
21 39
21 40
21 41
21 42
21 43
21 45
21 46
21 47
21 48
21 49
22 25
22 26
22 27
22 29
22 30
22 31
22 32
22 33
22 34
22 35
22 37
22 40
22 42
22 43
22 45
22 49
23 24
23 25
23 27
23 30
23 31
23 32
23 35
23 36
23 37
23 38
23 43
23 44
23 45
23 47
23 48
23 49
24 25
24 27
24 28
24 29
24 34
24 35
24 36
24 38
24 39
24 40
24 42
24 43
24 44
24 45
24 48
25 27
25 29
25 35
25 36
25 38
25 39
25 43
25 48
26 27
26 29
26 30
26 31
26 32
26 33
26 37
26 38
26 42
26 47
26 48
26 49
27 28
27 29
27 31
27 34
27 35
27 37
27 38
27 41
27 42
27 45
27 47
27 49
28 29
28 31
28 32
28 35
28 36
28 37
28 38
28 40
28 42
28 44
28 45
28 46
29 30
29 31
29 32
29 34
29 37
29 40
29 41
29 43
29 44
29 45
29 46
30 33
30 34
30 35
30 36
30 37
30 38
30 39
30 40
30 41
30 46
30 49
31 32
31 35
31 37
31 38
31 40
31 42
32 33
32 35
32 38
32 39
32 40
32 43
32 45
32 49
33 34
33 35
33 37
33 38
33 41
33 43
33 45
33 49
34 35
34 36
34 37
34 38
34 42
34 43
34 44
34 45
34 47
34 48
34 49
35 36
35 37
35 38
35 40
35 41
35 42
35 45
35 46
35 48
35 49
36 39
36 42
36 43
36 45
36 46
37 38
37 39
37 41
37 42
37 44
37 46
37 47
37 48
37 49
38 39
38 40
38 42
38 44
38 48
39 40
39 42
39 43
39 44
39 45
39 46
39 47
39 49
40 41
40 42
40 43
40 44
40 45
40 47
41 42
41 47
41 49
42 43
42 45
42 46
42 47
42 48
42 49
43 44
43 45
43 48
44 45
44 47
45 46
46 47
46 48
46 49
47 48
48 49
34 25 14 48 47 26 8 19 15 2 3 29
9 45 44 40 5 24 28 39 22 31 1 42
36 7 43 17 20 4 0 21 6 46 27 30
37 49 16 18 38 11 10 23 12 32 41 13
35 33
